sat
(:max-memory        18.77
 :memory            17.63
 :num-allocs        89711295
 :rlimit-count      425054
 :sls-constraints   2840
 :sls-ddfw-flips    361429.00
 :sls-ddfw-reinits  8
 :sls-ddfw-restarts 378
 :sls-ddfw-shifts   159955.00
 :sls.euf-conflict  2840
 :time              0.43
 :total-time        0.44)
